us6000qw60_coulomb.inp inverted by Dara Goldberg (USGS/NEIC) with Mo = 2.25e+22N-m, and Mw = 8.83
See Hayes(2017), The finite, kinematic rupture properties of great-sized earthquakes since 1990, EPSL 468, 94-100
#reg1=  0  #reg2=  0  #fixed= 465  sym=  1
 PR1=       0.250     PR2=       0.250   DEPTH=       10.000
  E1=      8.000e+05   E2=      8.000e+05
XSYM=       .000     YSYM=       .000
FRIC=          0.400
S1DR=         19.000 S1DP=         -0.010 S1IN=        100.000 S1GD=          0.000
S2DR=         89.990 S2DP=         89.990 S2IN=         30.000 S2GD=          0.000
S3DR=        109.000 S3DP=         -0.010 S3IN=          0.000 S3GD=          0.000

  #   X-start    Y-start     X-fin      Y-fin   Kode  rake     netslip   dip angle     top      bot
xxx xxxxxxxxxx xxxxxxxxxx xxxxxxxxxx xxxxxxxxxx xxx xxxxxxxxxx xxxxxxxxxx xxxxxxxxxx xxxxxxxxxx xxxxxxxxxx
  1   137.2731    35.6409   125.2368    19.6682 100   107.1532     2.7529     6.5000     7.3777     8.5097 FFM0
  1   125.6353    19.3636   113.5990     3.3909 100   110.4413     2.5127     6.5000     7.3777     8.5097 FFM1
  1   113.9243     3.1040   101.8880   -12.8687 100    93.0630     1.5710     6.5000     7.3777     8.5097 FFM2
  1   102.1265   -13.1158    90.0902   -29.0885 100    76.3784     1.9862     6.5000     7.3777     8.5097 FFM3
  1    90.2559   -29.3063    78.2196   -45.2790 100    99.0864     3.2345     6.5000     7.3777     8.5097 FFM4
  1    78.2992   -45.4787    66.2629   -61.4515 100    91.8024     4.1115     6.5000     7.3777     8.5097 FFM5
  1    66.2701   -61.6104    54.2338   -77.5831 100    84.2234     7.8048     6.5000     7.3777     8.5097 FFM6
  1    54.1552   -77.7234    42.1189   -93.6961 100    89.5207     9.4465     6.5000     7.3777     8.5097 FFM7
  1    41.9684   -93.7952    29.9321  -109.7679 100   102.1741     7.7488     6.5000     7.3777     8.5097 FFM8
  1    29.6963  -109.8479    17.6600  -125.8206 100    99.8069     8.1798     6.5000     7.3777     8.5097 FFM9
  1    17.3528  -125.8589     5.3165  -141.8316 100   110.8910    10.0842     6.5000     7.3777     8.5097 FFM10
  1     4.9243  -141.8391    -7.1120  -157.8119 100    98.7168     9.8373     6.5000     7.3777     8.5097 FFM11
  1    -7.5751  -157.7996   -19.6114  -173.7723 100    98.2548    12.7065     6.5000     7.3777     8.5097 FFM12
  1   -20.1590  -173.7177   -32.1953  -189.6904 100    87.1242    14.4928     6.5000     7.3777     8.5097 FFM13
  1   -32.8132  -189.6155   -44.8495  -205.5882 100    99.0720    15.3250     6.5000     7.3777     8.5097 FFM14
  1   -45.5516  -205.4705   -57.5879  -221.4432 100    90.0542    17.0071     6.5000     7.3777     8.5097 FFM15
  1   -58.3599  -221.3048   -70.3962  -237.2775 100    97.7362    21.0253     6.5000     7.3777     8.5097 FFM16
  1   -71.2519  -237.0959   -83.2882  -253.0686 100   103.9920    20.4374     6.5000     7.3777     8.5097 FFM17
  1   -84.2131  -252.8547   -96.2494  -268.8274 100   105.2882    14.0790     6.5000     7.3777     8.5097 FFM18
  1   -97.2578  -268.5920  -109.2941  -284.5647 100   102.8885    12.7789     6.5000     7.3777     8.5097 FFM19
  1  -110.3784  -284.2854  -122.4147  -300.2581 100    91.2117    12.8211     6.5000     7.3777     8.5097 FFM20
  1  -123.5677  -299.9572  -135.6040  -315.9299 100    96.8034    15.5695     6.5000     7.3777     8.5097 FFM21
  1  -136.8395  -315.5845  -148.8758  -331.5572 100   100.4070    16.9967     6.5000     7.3777     8.5097 FFM22
  1  -150.1796  -331.1897  -162.2159  -347.1624 100   104.8829    18.9090     6.5000     7.3777     8.5097 FFM23
  1  -163.6017  -346.7500  -175.6380  -362.7227 100   101.4811    15.4745     6.5000     7.3777     8.5097 FFM24
  1  -177.0913  -362.2768  -189.1276  -378.2495 100    89.2770    12.2486     6.5000     7.3777     8.5097 FFM25
  1  -190.6632  -377.7804  -202.6995  -393.7531 100   108.4166     6.3824     6.5000     7.3777     8.5097 FFM26
  1  -204.3017  -393.2390  -216.3380  -409.2117 100   105.9440     3.7911     6.5000     7.3777     8.5097 FFM27
  1  -218.0221  -408.6739  -230.0584  -424.6467 100    92.5024     2.0552     6.5000     7.3777     8.5097 FFM28
  1  -231.8085  -424.0635  -243.8448  -440.0362 100   109.5357     1.9408     6.5000     7.3777     8.5097 FFM29
  1  -245.6764  -439.4291  -257.7127  -455.4018 100   116.9517     0.3850     6.5000     7.3777     8.5097 FFM30
  1   129.2205    41.4324   117.1842    25.4597 100    93.3421     1.6758     6.5000     8.5098     9.6418 FFM31
  1   117.5711    25.1743   105.5348     9.2016 100   105.8228     5.7323     6.5000     8.5098     9.6418 FFM32
  1   105.8484     8.9451    93.8121    -7.0276 100    95.0521     5.0698     6.5000     8.5098     9.6418 FFM33
  1    94.0394    -7.2665    82.0031   -23.2392 100    60.4978     3.7866     6.5000     8.5098     9.6418 FFM34
  1    82.1574   -23.4376    70.1211   -39.4103 100    90.8711     5.7449     6.5000     8.5098     9.6418 FFM35
  1    70.1894   -39.5906    58.1531   -55.5633 100    90.3166     6.4490     6.5000     8.5098     9.6418 FFM36
  1    58.1489   -55.7027    46.1126   -71.6754 100    94.3058     9.6514     6.5000     8.5098     9.6418 FFM37
  1    46.0228   -71.7961    33.9865   -87.7688 100    87.2263    10.0776     6.5000     8.5098     9.6418 FFM38
  1    33.8248   -87.8482    21.7885  -103.8209 100   113.4475     9.5589     6.5000     8.5098     9.6418 FFM39
  1    21.5414  -103.8699     9.5051  -119.8426 100   103.7789    10.2922     6.5000     8.5098     9.6418 FFM40
  1     9.1868  -119.8722    -2.8495  -135.8449 100   110.1919    15.1798     6.5000     8.5098     9.6418 FFM41
  1    -3.2528  -135.8326   -15.2891  -151.8053 100   105.0641    14.6659     6.5000     8.5098     9.6418 FFM42
  1   -15.7702  -151.7730   -27.8065  -167.7457 100    97.9233    16.9610     6.5000     8.5098     9.6418 FFM43
  1   -28.3581  -167.6711   -40.3944  -183.6438 100    93.5639    21.1110     6.5000     8.5098     9.6418 FFM44
  1   -41.0304  -183.5487   -53.0667  -199.5214 100    89.6929    22.3325     6.5000     8.5098     9.6418 FFM45
  1   -53.7726  -199.3836   -65.8089  -215.3563 100    85.8554    26.4314     6.5000     8.5098     9.6418 FFM46
  1   -66.5987  -215.1864   -78.6350  -231.1591 100    94.9990    29.8172     6.5000     8.5098     9.6418 FFM47
  1   -79.4945  -230.9683   -91.5308  -246.9410 100    98.2288    27.8782     6.5000     8.5098     9.6418 FFM48
  1   -92.4736  -246.7066  -104.5099  -262.6793 100    96.7696    21.2695     6.5000     8.5098     9.6418 FFM49
  1  -105.5220  -262.4236  -117.5583  -278.3963 100    96.8079    16.9020     6.5000     8.5098     9.6418 FFM50
  1  -118.6532  -278.0964  -130.6895  -294.0691 100    91.9172    21.4527     6.5000     8.5098     9.6418 FFM51
  1  -131.8532  -293.7476  -143.8895  -309.7203 100    98.4347    27.8093     6.5000     8.5098     9.6418 FFM52
  1  -145.1356  -309.3542  -157.1719  -325.3269 100   108.3124    30.7917     6.5000     8.5098     9.6418 FFM53
  1  -158.4859  -324.9276  -170.5222  -340.9003 100   111.1512    30.7185     6.5000     8.5098     9.6418 FFM54
  1  -171.9189  -340.4782  -183.9552  -356.4509 100   100.5220    23.2526     6.5000     8.5098     9.6418 FFM55
  1  -185.4189  -355.9840  -197.4552  -371.9567 100    81.5707    15.6900     6.5000     8.5098     9.6418 FFM56
  1  -199.0012  -371.4667  -211.0375  -387.4394 100    87.7763     7.7106     6.5000     8.5098     9.6418 FFM57
  1  -212.6501  -386.9042  -224.6864  -402.8770 100    74.3971     2.0474     6.5000     8.5098     9.6418 FFM58
  1  -226.3808  -402.3181  -238.4171  -418.2908 100    65.2345     2.2740     6.5000     8.5098     9.6418 FFM59
  1  -240.1775  -417.6865  -252.2138  -433.6593 100   110.4007     2.6323     6.5000     8.5098     9.6418 FFM60
  1  -254.0551  -433.0198  -266.0914  -448.9925 100   101.7953     0.2283     6.5000     8.5098     9.6418 FFM61
  1   121.1869    47.2372   109.1506    31.2645 100   119.0022     1.7021     6.5000     9.6418    10.7738 FFM62
  1   109.5261    30.9983    97.4898    15.0256 100   113.3650     3.6997     6.5000     9.6418    10.7738 FFM63
  1    97.7919    14.7883    85.7556    -1.1844 100    95.0137     3.4846     6.5000     9.6418    10.7738 FFM64
  1    85.9715    -1.4039    73.9352   -17.3766 100    74.4646     0.5621     6.5000     9.6418    10.7738 FFM65
  1    74.0713   -17.5557    62.0350   -33.5285 100   112.7004     1.9524     6.5000     9.6418    10.7738 FFM66
  1    62.0987   -33.6891    50.0624   -49.6618 100    98.6493     2.6398     6.5000     9.6418    10.7738 FFM67
  1    50.0401   -49.7817    38.0038   -65.7544 100    99.8821     4.3947     6.5000     9.6418    10.7738 FFM68
  1    37.9096   -65.8555    25.8733   -81.8282 100    71.5644     6.0726     6.5000     9.6418    10.7738 FFM69
  1    25.6935   -81.8879    13.6571   -97.8606 100   115.9729     5.7309     6.5000     9.6418    10.7738 FFM70
  1    13.4059   -97.8899     1.3696  -113.8626 100   101.0403     8.5337     6.5000     9.6418    10.7738 FFM71
  1     1.0331  -113.8723   -11.0032  -129.8450 100   113.2891    11.1687     6.5000     9.6418    10.7738 FFM72
  1   -11.4105  -129.8128   -23.4468  -145.7855 100    97.2940    11.0741     6.5000     9.6418    10.7738 FFM73
  1   -23.9390  -145.7332   -35.9753  -161.7059 100    88.4366    14.4434     6.5000     9.6418    10.7738 FFM74
  1   -36.5379  -161.6112   -48.5742  -177.5839 100    86.6474    18.6303     6.5000     9.6418    10.7738 FFM75
  1   -49.2211  -177.4687   -61.2574  -193.4414 100    92.7267    20.8529     6.5000     9.6418    10.7738 FFM76
  1   -61.9742  -193.2834   -74.0105  -209.2561 100    87.1611    21.9583     6.5000     9.6418    10.7738 FFM77
  1   -74.8112  -209.0660   -86.8475  -225.0387 100    89.2849    24.0198     6.5000     9.6418    10.7738 FFM78
  1   -87.7178  -224.8276   -99.7541  -240.8003 100    90.9538    21.2883     6.5000     9.6418    10.7738 FFM79
  1  -100.7077  -240.5454  -112.7440  -256.5182 100    95.1771    15.3497     6.5000     9.6418    10.7738 FFM80
  1  -113.7668  -256.2419  -125.8031  -272.2147 100    91.3276    14.9656     6.5000     9.6418    10.7738 FFM81
  1  -126.9087  -271.8943  -138.9450  -287.8670 100    96.4930    20.8869     6.5000     9.6418    10.7738 FFM82
  1  -140.1193  -287.5248  -152.1556  -303.4975 100   103.0808    27.6590     6.5000     9.6418    10.7738 FFM83
  1  -153.4122  -303.1107  -165.4485  -319.0834 100   112.0670    34.4721     6.5000     9.6418    10.7738 FFM84
  1  -166.7731  -318.6633  -178.8094  -334.6361 100   104.8010    33.5933     6.5000     9.6418    10.7738 FFM85
  1  -180.2166  -334.1931  -192.2529  -350.1658 100    97.9051    25.8009     6.5000     9.6418    10.7738 FFM86
  1  -193.7271  -349.6781  -205.7634  -365.6508 100    73.3272    15.0501     6.5000     9.6418    10.7738 FFM87
  1  -207.3197  -365.1398  -219.3560  -381.1125 100    64.1893     6.4402     6.5000     9.6418    10.7738 FFM88
  1  -220.9789  -380.5563  -233.0152  -396.5291 100    84.4288     1.6963     6.5000     9.6418    10.7738 FFM89
  1  -234.7200  -395.9491  -246.7563  -411.9218 100   118.7966     1.8221     6.5000     9.6418    10.7738 FFM90
  1  -248.5343  -411.2961  -260.5706  -427.2688 100   115.3946     0.9864     6.5000     9.6418    10.7738 FFM91
  1  -262.4147  -426.6084  -274.4510  -442.5811 100   116.0851     0.0711     6.5000     9.6418    10.7738 FFM92
  1   113.1656    53.0662   101.1293    37.0935 100   103.0875     1.0091     6.5000    10.7738    11.9058 FFM93
  1   101.5002    36.8355    89.4639    20.8628 100   112.0612     2.4724     6.5000    10.7738    11.9058 FFM94
  1    89.7479    20.6447    77.7116     4.6720 100    77.3102     3.2425     6.5000    10.7738    11.9058 FFM95
  1    77.9228     4.4719    65.8865   -11.5008 100   119.7936     1.1859     6.5000    10.7738    11.9058 FFM96
  1    66.0112   -11.6606    53.9749   -27.6333 100    99.1058     1.5967     6.5000    10.7738    11.9058 FFM97
  1    54.0273   -27.7745    41.9910   -43.7472 100   103.1355     2.9254     6.5000    10.7738    11.9058 FFM98
  1    41.9574   -43.8475    29.9211   -59.8202 100    94.0198     1.7792     6.5000    10.7738    11.9058 FFM99
  1    29.8156   -59.8905    17.7793   -75.8632 100    75.2256     5.2782     6.5000    10.7738    11.9058 FFM100
  1    17.5883   -75.9144     5.5520   -91.8871 100    99.1734     3.3259     6.5000    10.7738    11.9058 FFM101
  1     5.2896   -91.8966    -6.7467  -107.8693 100    82.2059     6.6408     6.5000    10.7738    11.9058 FFM102
  1    -7.0942  -107.8592   -19.1306  -123.8319 100   114.2733     5.8777     6.5000    10.7738    11.9058 FFM103
  1   -19.5490  -123.7798   -31.5853  -139.7525 100    77.4200     6.4696     6.5000    10.7738    11.9058 FFM104
  1   -32.0885  -139.6802   -44.1248  -155.6529 100    82.6455    11.0485     6.5000    10.7738    11.9058 FFM105
  1   -44.6983  -155.5382   -56.7346  -171.5109 100    82.2503    16.2671     6.5000    10.7738    11.9058 FFM106
  1   -57.3923  -171.3645   -69.4286  -187.3372 100    93.8752    17.7709     6.5000    10.7738    11.9058 FFM107
  1   -70.1565  -187.1701   -82.1928  -203.1428 100    91.2050    20.1877     6.5000    10.7738    11.9058 FFM108
  1   -83.0043  -202.9324   -95.0406  -218.9051 100    84.4414    18.1994     6.5000    10.7738    11.9058 FFM109
  1   -95.9217  -218.6737  -107.9580  -234.6464 100    83.0416    12.8091     6.5000    10.7738    11.9058 FFM110
  1  -108.9223  -234.3711  -120.9586  -250.3438 100    74.2381    10.0872     6.5000    10.7738    11.9058 FFM111
  1  -121.9922  -250.0472  -134.0285  -266.0199 100    66.1263    12.6036     6.5000    10.7738    11.9058 FFM112
  1  -135.1447  -265.6789  -147.1810  -281.6516 100    88.1158    16.5885     6.5000    10.7738    11.9058 FFM113
  1  -148.3728  -281.2775  -160.4091  -297.2502 100   101.0152    24.1588     6.5000    10.7738    11.9058 FFM114
  1  -161.6694  -296.8541  -173.7057  -312.8268 100   103.7945    28.4148     6.5000    10.7738    11.9058 FFM115
  1  -175.0480  -312.3857  -187.0843  -328.3584 100   100.5794    26.0665     6.5000    10.7738    11.9058 FFM116
  1  -188.4947  -327.8949  -200.5310  -343.8677 100    90.1988    19.8532     6.5000    10.7738    11.9058 FFM117
  1  -202.0229  -343.3588  -214.0592  -359.3315 100    69.8512    12.3919     6.5000    10.7738    11.9058 FFM118
  1  -215.6187  -358.7998  -227.6550  -374.7725 100    68.6762     5.2712     6.5000    10.7738    11.9058 FFM119
  1  -229.2956  -374.1950  -241.3319  -390.1677 100   103.1099     3.3720     6.5000    10.7738    11.9058 FFM120
  1  -243.0390  -389.5559  -255.0753  -405.5286 100    96.5514     3.3180     6.5000    10.7738    11.9058 FFM121
  1  -256.8641  -404.8928  -268.9004  -420.8655 100    97.1865     4.2973     6.5000    10.7738    11.9058 FFM122
  1  -270.7548  -420.1839  -282.7911  -436.1566 100    77.6946     0.0479     6.5000    10.7738    11.9058 FFM123
  1   105.1705    58.8975    93.1342    42.9248 100    65.4601     0.5069     6.5000    11.9059    13.0379 FFM124
  1    93.4936    42.6859    81.4573    26.7132 100    90.2625     0.5294     6.5000    11.9059    13.0379 FFM125
  1    81.7298    26.5143    69.6935    10.5416 100    78.6089     1.8355     6.5000    11.9059    13.0379 FFM126
  1    69.8933    10.3609    57.8570    -5.6119 100    86.5192     2.6117     6.5000    11.9059    13.0379 FFM127
  1    57.9704    -5.7522    45.9341   -21.7249 100    72.8529     0.4569     6.5000    11.9059    13.0379 FFM128
  1    45.9751   -21.8355    33.9388   -37.8082 100    80.4173     1.1996     6.5000    11.9059    13.0379 FFM129
  1    33.8940   -37.9002    21.8577   -53.8729 100    84.6006     3.5722     6.5000    11.9059    13.0379 FFM130
  1    21.7410   -53.9235     9.7047   -69.8962 100    69.7894     6.9892     6.5000    11.9059    13.0379 FFM131
  1     9.5025   -69.9277    -2.5338   -85.9004 100   100.1160     5.9107     6.5000    11.9059    13.0379 FFM132
  1    -2.8074   -85.8902   -14.8437  -101.8629 100   109.9525     9.6028     6.5000    11.9059    13.0379 FFM133
  1   -15.2023  -101.8330   -27.2386  -117.8057 100   101.9608     8.7571     6.5000    11.9059    13.0379 FFM134
  1   -27.6681  -117.7336   -39.7044  -133.7063 100    93.9917     7.3540     6.5000    11.9059    13.0379 FFM135
  1   -40.2185  -133.6030   -52.2548  -149.5757 100    86.9387    10.9719     6.5000    11.9059    13.0379 FFM136
  1   -52.8464  -149.4519   -64.8827  -165.4246 100    82.6372    16.1764     6.5000    11.9059    13.0379 FFM137
  1   -65.5443  -165.2582   -77.5806  -181.2309 100    86.8920    18.9852     6.5000    11.9059    13.0379 FFM138
  1   -78.3264  -181.0435   -90.3627  -197.0162 100    86.1929    19.4037     6.5000    11.9059    13.0379 FFM139
  1   -91.1779  -196.7857  -103.2142  -212.7584 100    88.0691    17.2809     6.5000    11.9059    13.0379 FFM140
  1  -104.1133  -212.5064  -116.1496  -228.4792 100    80.4951    10.5929     6.5000    11.9059    13.0379 FFM141
  1  -117.1175  -228.1837  -129.1538  -244.1564 100    70.6975     5.7112     6.5000    11.9059    13.0379 FFM142
  1  -130.2049  -243.8279  -142.2412  -259.8006 100    72.7016     7.6943     6.5000    11.9059    13.0379 FFM143
  1  -143.3612  -259.4505  -155.3975  -275.4232 100    83.8232    14.0945     6.5000    11.9059    13.0379 FFM144
  1  -156.5999  -275.0285  -168.6362  -291.0012 100    94.9803    21.1601     6.5000    11.9059    13.0379 FFM145
  1  -169.9071  -290.5844  -181.9434  -306.5571 100    95.6005    25.0793     6.5000    11.9059    13.0379 FFM146
  1  -183.2962  -306.0953  -195.3325  -322.0680 100    85.6693    24.0074     6.5000    11.9059    13.0379 FFM147
  1  -196.7534  -321.5837  -208.7897  -337.5564 100    75.4830    13.1501     6.5000    11.9059    13.0379 FFM148
  1  -210.2920  -337.0266  -222.3283  -352.9993 100    64.6673     8.4008     6.5000    11.9059    13.0379 FFM149
  1  -223.8977  -352.4356  -235.9340  -368.4083 100    68.5360     3.4657     6.5000    11.9059    13.0379 FFM150
  1  -237.5853  -367.8209  -249.6216  -383.7936 100   107.8375     2.5355     6.5000    11.9059    13.0379 FFM151
  1  -251.3390  -383.1607  -263.3753  -399.1334 100    90.5883     2.4411     6.5000    11.9059    13.0379 FFM152
  1  -265.1743  -398.4764  -277.2106  -414.4491 100   102.5062     1.7223     6.5000    11.9059    13.0379 FFM153
  1  -279.0752  -413.7463  -291.1115  -429.7190 100   104.5517     0.2263     6.5000    11.9059    13.0379 FFM154
  1    97.1946    64.7419    85.1583    48.7692 100   105.7256     0.0793     6.5000    13.0379    14.1699 FFM155
  1    85.5062    48.5495    73.4699    32.5768 100   112.3670     0.2888     6.5000    13.0379    14.1699 FFM156
  1    73.7310    32.3972    61.6947    16.4245 100   108.5089     0.2136     6.5000    13.0379    14.1699 FFM157
  1    61.8830    16.2741    49.8467     0.3014 100   113.2392     0.3094     6.5000    13.0379    14.1699 FFM158
  1    49.9488     0.1693    37.9125   -15.8034 100   100.9732     1.8531     6.5000    13.0379    14.1699 FFM159
  1    37.9354   -15.8946    25.8991   -31.8673 100    90.2404     5.8535     6.5000    13.0379    14.1699 FFM160
  1    25.8499   -31.9396    13.8136   -47.9123 100    87.3831    10.8187     6.5000    13.0379    14.1699 FFM161
  1    13.6788   -47.9434     1.6425   -63.9161 100    71.4940    11.7835     6.5000    13.0379    14.1699 FFM162
  1     1.4360   -63.9279   -10.6003   -79.9006 100    94.9474    10.9801     6.5000    13.0379    14.1699 FFM163
  1   -10.8919   -79.8706   -22.9282   -95.8433 100   105.6194    13.9042     6.5000    13.0379    14.1699 FFM164
  1   -23.2909   -95.7824   -35.3272  -111.7552 100   100.2419    16.2508     6.5000    13.0379    14.1699 FFM165
  1   -35.7747  -111.6743   -47.8110  -127.6470 100    99.5334    17.3658     6.5000    13.0379    14.1699 FFM166
  1   -48.3291  -127.5237   -60.3654  -143.4964 100    87.7756    19.1884     6.5000    13.0379    14.1699 FFM167
  1   -60.9680  -143.3527   -73.0043  -159.3254 100    77.8315    21.3269     6.5000    13.0379    14.1699 FFM168
  1   -73.6768  -159.1388   -85.7131  -175.1115 100    79.0902    23.3497     6.5000    13.0379    14.1699 FFM169
  1   -86.4698  -174.9039   -98.5061  -190.8766 100    82.8367    19.7723     6.5000    13.0379    14.1699 FFM170
  1   -99.3321  -190.6258  -111.3684  -206.5985 100    89.4134    18.4702     6.5000    13.0379    14.1699 FFM171
  1  -112.2780  -206.3152  -124.3143  -222.2879 100    96.2145    11.4739     6.5000    13.0379    14.1699 FFM172
  1  -125.2932  -221.9831  -137.3295  -237.9559 100    70.3737     5.4105     6.5000    13.0379    14.1699 FFM173
  1  -138.3912  -237.6069  -150.4275  -253.5796 100    62.8439     6.6353     6.5000    13.0379    14.1699 FFM174
  1  -151.5582  -253.2090  -163.5945  -269.1817 100    75.8505    15.8137     6.5000    13.0379    14.1699 FFM175
  1  -164.8075  -268.7663  -176.8438  -284.7390 100    81.7557    24.2898     6.5000    13.0379    14.1699 FFM176
  1  -178.1252  -284.3016  -190.1615  -300.2743 100    89.7960    28.6285     6.5000    13.0379    14.1699 FFM177
  1  -191.5248  -299.7917  -203.5611  -315.7644 100    82.1071    27.4769     6.5000    13.0379    14.1699 FFM178
  1  -204.9920  -315.2482  -217.0283  -331.2209 100    78.7874    14.4870     6.5000    13.0379    14.1699 FFM179
  1  -218.5414  -330.6814  -230.5777  -346.6541 100    63.7670     6.5504     6.5000    13.0379    14.1699 FFM180
  1  -232.1575  -346.0694  -244.1938  -362.0421 100   118.1382     0.0202     6.5000    13.0379    14.1699 FFM181
  1  -245.8554  -361.4337  -257.8917  -377.4064 100   117.6200     1.4420     6.5000    13.0379    14.1699 FFM182
  1  -259.6194  -376.7524  -271.6557  -392.7251 100    96.1631     3.2175     6.5000    13.0379    14.1699 FFM183
  1  -273.4649  -392.0470  -285.5012  -408.0197 100   111.3235     2.4740     6.5000    13.0379    14.1699 FFM184
  1  -287.3833  -407.2953  -299.4196  -423.2680 100   100.4260     0.2488     6.5000    13.0379    14.1699 FFM185
  1    88.9495    70.6681    76.9132    54.6953 100    82.7803     0.0244    17.0000    14.4685    17.3923 FFM186
  1    77.0610    54.5035    65.0247    38.5308 100    74.6317     0.4159    17.0000    14.4685    17.3923 FFM187
  1    65.0982    38.3689    53.0619    22.3962 100   105.3812     0.1583    17.0000    14.4685    17.3923 FFM188
  1    53.0480    22.2534    41.0117     6.2807 100   102.8391     0.3119    17.0000    14.4685    17.3923 FFM189
  1    40.9171     6.1795    28.8808    -9.7932 100   109.3686     5.1737    17.0000    14.4685    17.3923 FFM190
  1    28.7059    -9.8749    16.6696   -25.8476 100    90.9922     9.4788    17.0000    14.4685    17.3923 FFM191
  1    16.4145   -25.8871     4.3782   -41.8598 100    92.6383    18.4236    17.0000    14.4685    17.3923 FFM192
  1     4.0501   -41.8793    -7.9862   -57.8520 100    80.7756    18.5350    17.0000    14.4685    17.3923 FFM193
  1    -8.4008   -57.8290   -20.4371   -73.8017 100   103.5994    15.4755    17.0000    14.4685    17.3923 FFM194
  1   -20.9311   -73.7469   -32.9674   -89.7196 100    99.8044    18.6296    17.0000    14.4685    17.3923 FFM195
  1   -33.5406   -89.6441   -45.5769  -105.6168 100   107.4612    18.8653    17.0000    14.4685    17.3923 FFM196
  1   -46.2290  -105.4980   -58.2653  -121.4707 100    98.4306    22.9065    17.0000    14.4685    17.3923 FFM197
  1   -58.9963  -121.3307   -71.0326  -137.3034 100   101.1187    22.4437    17.0000    14.4685    17.3923 FFM198
  1   -71.8349  -137.1197   -83.8712  -153.0924 100    85.3299    19.7065    17.0000    14.4685    17.3923 FFM199
  1   -84.7589  -152.8869   -96.7952  -168.8596 100    78.0892    20.1182    17.0000    14.4685    17.3923 FFM200
  1   -97.7607  -168.6099  -109.7970  -184.5826 100    82.0976    20.7121    17.0000    14.4685    17.3923 FFM201
  1  -110.8402  -184.2996  -122.8765  -200.2723 100    91.0106    19.9453    17.0000    14.4685    17.3923 FFM202
  1  -123.9976  -199.9669  -136.0339  -215.9396 100    85.4667    15.4936    17.0000    14.4685    17.3923 FFM203
  1  -137.2319  -215.5893  -149.2682  -231.5620 100    71.8799     8.4953    17.0000    14.4685    17.3923 FFM204
  1  -150.5366  -231.1891  -162.5729  -247.1618 100    83.0896    11.7123    17.0000    14.4685    17.3923 FFM205
  1  -163.9248  -246.7434  -175.9611  -262.7161 100    85.2910    22.6714    17.0000    14.4685    17.3923 FFM206
  1  -177.3900  -262.2744  -189.4263  -278.2471 100    81.2973    33.1353    17.0000    14.4685    17.3923 FFM207
  1  -190.9311  -277.7597  -202.9674  -293.7324 100    82.3615    34.6096    17.0000    14.4685    17.3923 FFM208
  1  -204.5483  -293.2101  -216.5846  -309.1828 100    81.8987    29.8679    17.0000    14.4685    17.3923 FFM209
  1  -218.2418  -308.6365  -230.2781  -324.6093 100    82.9913    16.8752    17.0000    14.4685    17.3923 FFM210
  1  -232.0032  -324.0170  -244.0395  -339.9897 100    77.7783     4.9841    17.0000    14.4685    17.3923 FFM211
  1  -245.8478  -339.3727  -257.8841  -355.3454 100   117.8936     0.2843    17.0000    14.4685    17.3923 FFM212
  1  -259.7670  -354.6816  -271.8033  -370.6543 100   113.6772     2.0351    17.0000    14.4685    17.3923 FFM213
  1  -273.7616  -369.9658  -285.7979  -385.9385 100    91.5801     3.1384    17.0000    14.4685    17.3923 FFM214
  1  -287.8303  -385.2027  -299.8666  -401.1754 100   110.8029     0.7387    17.0000    14.4685    17.3923 FFM215
  1  -301.9735  -400.4033  -314.0098  -416.3760 100    81.4311     0.0790    17.0000    14.4685    17.3923 FFM216
  1    81.1956    76.3187    69.1593    60.3459 100   102.5479     0.0418    17.0000    17.3922    20.3160 FFM217
  1    69.2959    60.1731    57.2596    44.2004 100    79.6599     0.0126    17.0000    17.3922    20.3160 FFM218
  1    57.3153    44.0576    45.2790    28.0848 100    80.4279     0.3188    17.0000    17.3922    20.3160 FFM219
  1    45.2539    27.9612    33.2176    11.9885 100    95.5045     0.6084    17.0000    17.3922    20.3160 FFM220
  1    33.1188    11.9065    21.0825    -4.0662 100   115.5506     2.3169    17.0000    17.3922    20.3160 FFM221
  1    20.8965    -4.1285     8.8602   -20.1012 100    60.1693     5.6618    17.0000    17.3922    20.3160 FFM222
  1     8.5942   -20.1214    -3.4421   -36.0941 100    85.9731    14.3038    17.0000    17.3922    20.3160 FFM223
  1    -3.7880   -36.0941   -15.8243   -52.0668 100    86.5133    16.3551    17.0000    17.3922    20.3160 FFM224
  1   -16.2497   -52.0242   -28.2860   -67.9969 100   101.9610    14.4714    17.0000    17.3922    20.3160 FFM225
  1   -28.7908   -67.9226   -40.8271   -83.8953 100    94.4298    15.5973    17.0000    17.3922    20.3160 FFM226
  1   -41.4043   -83.8001   -53.4406   -99.7729 100   112.1021    18.9595    17.0000    17.3922    20.3160 FFM227
  1   -54.1034   -99.6343   -66.1397  -115.6070 100   102.6197    20.4502    17.0000    17.3922    20.3160 FFM228
  1   -66.8814  -115.4471   -78.9177  -131.4198 100    94.1802    21.9302    17.0000    17.3922    20.3160 FFM229
  1   -79.7376  -131.2162   -91.7739  -147.1889 100    87.3227    21.2538    17.0000    17.3922    20.3160 FFM230
  1   -92.6722  -146.9634  -104.7085  -162.9361 100    87.6182    21.8869    17.0000    17.3922    20.3160 FFM231
  1  -105.6846  -162.6664  -117.7209  -178.6391 100    85.5894    25.0693    17.0000    17.3922    20.3160 FFM232
  1  -118.7676  -178.3361  -130.8039  -194.3089 100    92.7850    20.2791    17.0000    17.3922    20.3160 FFM233
  1  -131.9355  -193.9833  -143.9718  -209.9560 100    95.0123    16.8829    17.0000    17.3922    20.3160 FFM234
  1  -145.1802  -209.5855  -157.2165  -225.5582 100    84.4814    17.4947    17.0000    17.3922    20.3160 FFM235
  1  -158.5024  -225.1648  -170.5387  -241.1375 100    85.9329    22.3366    17.0000    17.3922    20.3160 FFM236
  1  -171.9009  -240.6987  -183.9372  -256.6714 100    76.7963    30.1374    17.0000    17.3922    20.3160 FFM237
  1  -185.3764  -256.2092  -197.4127  -272.1819 100    79.6193    38.8968    17.0000    17.3922    20.3160 FFM238
  1  -198.9206  -271.6742  -210.9569  -287.6469 100    78.8754    36.7837    17.0000    17.3922    20.3160 FFM239
  1  -212.5480  -287.1041  -224.5843  -303.0768 100    68.8652    26.9045    17.0000    17.3922    20.3160 FFM240
  1  -226.2516  -302.5099  -238.2879  -318.4826 100    69.1367    11.6223    17.0000    17.3922    20.3160 FFM241
  1  -240.0304  -317.8693  -252.0667  -333.8420 100    66.3656     2.7639    17.0000    17.3922    20.3160 FFM242
  1  -253.8850  -333.2042  -265.9213  -349.1769 100    78.4428     0.0686    17.0000    17.3922    20.3160 FFM243
  1  -267.8142  -348.4923  -279.8505  -364.4650 100   118.1453     0.2237    17.0000    17.3922    20.3160 FFM244
  1  -281.8115  -363.7559  -293.8478  -379.7286 100    86.4761     4.5349    17.0000    17.3922    20.3160 FFM245
  1  -295.8901  -378.9718  -307.9264  -394.9446 100    69.2897     0.1378    17.0000    17.3922    20.3160 FFM246
  1  -310.0431  -394.1514  -322.0794  -410.1241 100    77.5817     0.2927    17.0000    17.3922    20.3160 FFM247
  1    73.4532    81.9816    61.4169    66.0089 100    86.0021     0.4586    17.0000    20.3159    23.2397 FFM248
  1    61.5491    65.8551    49.5128    49.8824 100   112.2589     0.3078    17.0000    20.3159    23.2397 FFM249
  1    49.5574    49.7476    37.5211    33.7749 100    84.6774     0.4594    17.0000    20.3159    23.2397 FFM250
  1    37.4849    33.6815    25.4486    17.7088 100    60.8985     0.3630    17.0000    20.3159    23.2397 FFM251
  1    25.3319    17.6460    13.2956     1.6733 100    99.2257     0.6269    17.0000    20.3159    23.2397 FFM252
  1    13.0987     1.6303     1.0624   -14.3424 100    60.2750     3.8105    17.0000    20.3159    23.2397 FFM253
  1     0.7854   -14.3432   -11.2509   -30.3159 100    73.6894     7.7214    17.0000    20.3159    23.2397 FFM254
  1   -11.6009   -30.2965   -23.6372   -46.2692 100    77.3661    11.9212    17.0000    20.3159    23.2397 FFM255
  1   -24.0735   -46.2071   -36.1098   -62.1798 100    79.1020     8.6176    17.0000    20.3159    23.2397 FFM256
  1   -36.6255   -62.0970   -48.6618   -78.0697 100    73.5783    11.6391    17.0000    20.3159    23.2397 FFM257
  1   -49.2565   -77.9437   -61.2928   -93.9164 100   118.9463    12.2153    17.0000    20.3159    23.2397 FFM258
  1   -61.9664   -93.7581   -74.0027  -109.7308 100   103.5005    12.9993    17.0000    20.3159    23.2397 FFM259
  1   -74.7551  -109.5511   -86.7914  -125.5238 100    85.7258    15.3481    17.0000    20.3159    23.2397 FFM260
  1   -87.6150  -125.3004   -99.6513  -141.2731 100    81.9116    18.3276    17.0000    20.3159    23.2397 FFM261
  1  -100.5602  -141.0277  -112.5965  -157.0004 100    85.8896    16.2777    17.0000    20.3159    23.2397 FFM262
  1  -113.5831  -156.7106  -125.6194  -172.6833 100    80.7794    17.7558    17.0000    20.3159    23.2397 FFM263
  1  -126.6840  -172.3712  -138.7203  -188.3440 100    86.8339    16.1834    17.0000    20.3159    23.2397 FFM264
  1  -139.8620  -187.9871  -151.8983  -203.9598 100    88.8166    14.9031    17.0000    20.3159    23.2397 FFM265
  1  -153.1171  -203.5690  -165.1534  -219.5418 100    90.3006    18.8682    17.0000    20.3159    23.2397 FFM266
  1  -166.4426  -219.1283  -178.4789  -235.1010 100    92.7562    23.3020    17.0000    20.3159    23.2397 FFM267
  1  -179.8514  -234.6418  -191.8877  -250.6145 100    88.5914    31.4149    17.0000    20.3159    23.2397 FFM268
  1  -193.3372  -250.1319  -205.3735  -266.1046 100    82.6886    39.3435    17.0000    20.3159    23.2397 FFM269
  1  -206.8987  -265.5761  -218.9350  -281.5488 100    82.0498    34.0942    17.0000    20.3159    23.2397 FFM270
  1  -220.5368  -280.9965  -232.5731  -296.9692 100    85.9462    17.6827    17.0000    20.3159    23.2397 FFM271
  1  -234.2501  -296.3706  -246.2864  -312.3433 100   103.1079     6.0989    17.0000    20.3159    23.2397 FFM272
  1  -248.0318  -311.7096  -260.0681  -327.6823 100    60.8513     2.0124    17.0000    20.3159    23.2397 FFM273
  1  -261.8964  -327.0237  -273.9327  -342.9964 100   105.4345     0.0702    17.0000    20.3159    23.2397 FFM274
  1  -275.8356  -342.2909  -287.8719  -358.2637 100    84.7653     0.5554    17.0000    20.3159    23.2397 FFM275
  1  -289.8501  -357.5332  -301.8864  -373.5060 100   115.4423     0.0778    17.0000    20.3159    23.2397 FFM276
  1  -303.9387  -372.7282  -315.9750  -388.7009 100    76.5625     0.1878    17.0000    20.3159    23.2397 FFM277
  1  -318.1022  -387.8978  -330.1385  -403.8705 100    72.3705     0.1050    17.0000    20.3159    23.2397 FFM278
  1    65.7357    87.6571    53.6994    71.6844 100    95.1156     0.2667    17.0000    23.2396    26.1634 FFM279
  1    53.8138    71.5496    41.7775    55.5769 100    81.0278     0.1953    17.0000    23.2396    26.1634 FFM280
  1    41.8109    55.4611    29.7746    39.4884 100   117.4880     0.1356    17.0000    23.2396    26.1634 FFM281
  1    29.7274    39.4142    17.6911    23.4415 100    87.6979     0.3886    17.0000    23.2396    26.1634 FFM282
  1    17.5701    23.3980     5.5338     7.4252 100   105.7516     0.0286    17.0000    23.2396    26.1634 FFM283
  1     5.3259     7.4015    -6.7104    -8.5712 100    74.1692     3.3450    17.0000    23.2396    26.1634 FFM284
  1    -6.9983    -8.5526   -19.0346   -24.5253 100    60.9865     5.2358    17.0000    23.2396    26.1634 FFM285
  1   -19.4023   -24.4864   -31.4386   -40.4592 100    86.2915     6.4488    17.0000    23.2396    26.1634 FFM286
  1   -31.8858   -40.3775   -43.9221   -56.3502 100    60.0920     6.8244    17.0000    23.2396    26.1634 FFM287
  1   -44.4486   -56.2478   -56.4849   -72.2205 100    63.3877     7.6006    17.0000    23.2396    26.1634 FFM288
  1   -57.0835   -72.0749   -69.1198   -88.0476 100   115.3053     5.0036    17.0000    23.2396    26.1634 FFM289
  1   -69.8041   -87.8696   -81.8404  -103.8423 100    88.7931     4.7294    17.0000    23.2396    26.1634 FFM290
  1   -82.6034  -103.6428   -94.6397  -119.6155 100    80.2713     5.9271    17.0000    23.2396    26.1634 FFM291
  1   -95.4809  -119.3721  -107.5172  -135.3448 100    93.7988     6.8684    17.0000    23.2396    26.1634 FFM292
  1  -108.4367  -135.0794  -120.4730  -151.0521 100   109.7150     6.7387    17.0000    23.2396    26.1634 FFM293
  1  -121.4702  -150.7423  -133.5065  -166.7150 100    82.1772     7.9896    17.0000    23.2396    26.1634 FFM294
  1  -134.5745  -166.3830  -146.6108  -182.3558 100    77.5226     8.5024    17.0000    23.2396    26.1634 FFM295
  1  -147.7629  -181.9787  -159.7992  -197.9515 100    85.4787     9.3065    17.0000    23.2396    26.1634 FFM296
  1  -161.0285  -197.5405  -173.0648  -213.5132 100    78.3322    11.9389    17.0000    23.2396    26.1634 FFM297
  1  -174.3714  -213.0792  -186.4077  -229.0519 100    97.0021    15.8455    17.0000    23.2396    26.1634 FFM298
  1  -187.7905  -228.5723  -199.8268  -244.5450 100    96.9276    23.4027    17.0000    23.2396    26.1634 FFM299
  1  -201.2866  -244.0420  -213.3229  -260.0147 100    79.3008    23.6023    17.0000    23.2396    26.1634 FFM300
  1  -214.8512  -259.4660  -226.8875  -275.4387 100    73.5015    18.1679    17.0000    23.2396    26.1634 FFM301
  1  -228.4994  -274.8658  -240.5357  -290.8385 100    60.9657    10.7174    17.0000    23.2396    26.1634 FFM302
  1  -242.2228  -290.2192  -254.2591  -306.1919 100    74.9173     1.0581    17.0000    23.2396    26.1634 FFM303
  1  -256.0217  -305.5371  -268.0580  -321.5099 100    84.8014     0.6022    17.0000    23.2396    26.1634 FFM304
  1  -269.8965  -320.8305  -281.9328  -336.8032 100   113.8365     0.0184    17.0000    23.2396    26.1634 FFM305
  1  -283.8456  -336.0769  -295.8819  -352.0496 100    72.2472     0.0905    17.0000    23.2396    26.1634 FFM306
  1  -297.8628  -351.2987  -309.8991  -367.2714 100    85.7994     0.2633    17.0000    23.2396    26.1634 FFM307
  1  -311.9612  -366.4727  -323.9975  -382.4454 100    73.3251     1.1757    17.0000    23.2396    26.1634 FFM308
  1  -326.1346  -381.6212  -338.1709  -397.5939 100    67.4104     0.1352    17.0000    23.2396    26.1634 FFM309
  1    58.0299    93.3449    45.9936    77.3722 100    77.0066     0.0696    17.0000    26.1634    29.0872 FFM310
  1    46.1034    77.2564    34.0671    61.2837 100    76.9016     0.2105    17.0000    26.1634    29.0872 FFM311
  1    34.0895    61.1870    22.0532    45.2143 100    77.0324     0.1560    17.0000    26.1634    29.0872 FFM312
  1    21.9949    45.1593     9.9586    29.1865 100    66.4873     0.4275    17.0000    26.1634    29.0872 FFM313
  1     9.8199    29.1511    -2.2164    13.1784 100    91.4607     0.1789    17.0000    26.1634    29.0872 FFM314
  1    -2.4353    13.1851   -14.4716    -2.7876 100    92.0676     0.3507    17.0000    26.1634    29.0872 FFM315
  1   -14.7705    -2.7496   -26.8068   -18.7223 100    64.6574     2.2748    17.0000    26.1634    29.0872 FFM316
  1   -27.1785   -18.6641   -39.2148   -34.6368 100    95.4865     2.1965    17.0000    26.1634    29.0872 FFM317
  1   -39.6728   -34.5356   -51.7091   -50.5083 100    75.6207     1.0488    17.0000    26.1634    29.0872 FFM318
  1   -52.2465   -50.3863   -64.2828   -66.3590 100    74.0712     2.6412    17.0000    26.1634    29.0872 FFM319
  1   -64.8990   -66.1937   -76.9353   -82.1664 100   104.3440     0.3642    17.0000    26.1634    29.0872 FFM320
  1   -77.6305   -81.9798   -89.6668   -97.9525 100    60.0321     1.7026    17.0000    26.1634    29.0872 FFM321
  1   -90.4403   -97.7220  -102.4766  -113.6947 100    80.8732     1.2188    17.0000    26.1634    29.0872 FFM322
  1  -103.3214  -113.4316  -115.3577  -129.4043 100   108.8049     3.8655    17.0000    26.1634    29.0872 FFM323
  1  -116.2878  -129.1190  -128.3241  -145.0917 100   111.1924     3.4000    17.0000    26.1634    29.0872 FFM324
  1  -129.3317  -144.7619  -141.3680  -160.7346 100   106.6265     1.9020    17.0000    26.1634    29.0872 FFM325
  1  -142.4536  -160.3823  -154.4899  -176.3550 100    94.6644     0.1873    17.0000    26.1634    29.0872 FFM326
  1  -155.6525  -175.9578  -167.6888  -191.9306 100   118.2833     3.1677    17.0000    26.1634    29.0872 FFM327
  1  -168.9288  -191.5105  -180.9651  -207.4832 100    63.7231     0.3699    17.0000    26.1634    29.0872 FFM328
  1  -182.2746  -207.0180  -194.3109  -222.9907 100   115.4794     3.5769    17.0000    26.1634    29.0872 FFM329
  1  -195.7040  -222.4908  -207.7403  -238.4635 100   119.9686     8.2175    17.0000    26.1634    29.0872 FFM330
  1  -209.2103  -237.9400  -221.2466  -253.9127 100    68.9518     5.9633    17.0000    26.1634    29.0872 FFM331
  1  -222.7922  -253.3432  -234.8285  -269.3159 100   116.2493     4.3594    17.0000    26.1634    29.0872 FFM332
  1  -236.4506  -268.7224  -248.4869  -284.6951 100    65.3224     2.0240    17.0000    26.1634    29.0872 FFM333
  1  -250.1842  -284.0552  -262.2205  -300.0279 100    97.4473     0.3493    17.0000    26.1634    29.0872 FFM334
  1  -263.9865  -299.3639  -276.0228  -315.3366 100    92.9247     0.0977    17.0000    26.1634    29.0872 FFM335
  1  -277.8706  -314.6254  -289.9069  -330.5981 100    83.5852     0.4957    17.0000    26.1634    29.0872 FFM336
  1  -291.8297  -329.8509  -303.8660  -345.8236 100    61.5613     2.4556    17.0000    26.1634    29.0872 FFM337
  1  -305.8642  -345.0514  -317.9005  -361.0241 100   115.7963     0.0902    17.0000    26.1634    29.0872 FFM338
  1  -319.9724  -360.2044  -332.0087  -376.1771 100    67.3884     0.0554    17.0000    26.1634    29.0872 FFM339
  1  -334.1556  -375.3319  -346.1919  -391.3046 100   112.3277     0.0401    17.0000    26.1634    29.0872 FFM340
  1    50.3490    99.0452    38.3127    83.0725 100    65.9711     0.0257    17.0000    29.0871    32.0109 FFM341
  1    38.4047    82.9756    26.3684    67.0029 100    61.8305     0.2765    17.0000    29.0871    32.0109 FFM342
  1    26.3797    66.9253    14.3434    50.9526 100    84.9922     0.5198    17.0000    29.0871    32.0109 FFM343
  1    14.2740    50.9167     2.2377    34.9440 100    70.5551     0.2456    17.0000    29.0871    32.0109 FFM344
  1     2.0947    34.9278    -9.9416    18.9550 100   119.6777     0.2676    17.0000    29.0871    32.0109 FFM345
  1   -10.1714    18.9810   -22.2077     3.0083 100    81.6034     0.4530    17.0000    29.0871    32.0109 FFM346
  1   -22.5174     3.0657   -34.5537   -12.9070 100    93.3687     0.0826    17.0000    29.0871    32.0109 FFM347
  1   -34.9432   -12.8293   -46.9795   -28.8020 100    97.0071     0.0249    17.0000    29.0871    32.0109 FFM348
  1   -47.4483   -28.6813   -59.4846   -44.6540 100    90.3785     0.1484    17.0000    29.0871    32.0109 FFM349
  1   -60.0328   -44.5124   -72.0691   -60.4851 100   109.8578     0.4041    17.0000    29.0871    32.0109 FFM350
  1   -72.6891   -60.3003   -84.7254   -76.2730 100    74.1887     1.1998    17.0000    29.0871    32.0109 FFM351
  1   -85.4313   -76.0666   -97.4676   -92.0393 100    60.8907     3.8456    17.0000    29.0871    32.0109 FFM352
  1   -98.2517   -91.7891  -110.2880  -107.7618 100    78.6949     0.6142    17.0000    29.0871    32.0109 FFM353
  1  -111.1504  -107.4786  -123.1867  -123.4513 100    91.0026     2.9475    17.0000    29.0871    32.0109 FFM354
  1  -124.1274  -123.1460  -136.1637  -139.1187 100    62.0874     0.9331    17.0000    29.0871    32.0109 FFM355
  1  -137.1818  -138.7689  -149.2181  -154.7416 100    61.7062     0.1183    17.0000    29.0871    32.0109 FFM356
  1  -150.3071  -154.3695  -162.3434  -170.3422 100    69.2273     0.1602    17.0000    29.0871    32.0109 FFM357
  1  -163.5164  -169.9249  -175.5527  -185.8976 100   119.9744     0.5571    17.0000    29.0871    32.0109 FFM358
  1  -176.8031  -185.4573  -188.8394  -201.4300 100   112.2403     0.0988    17.0000    29.0871    32.0109 FFM359
  1  -190.1663  -200.9443  -202.2026  -216.9170 100    64.2024     0.2128    17.0000    29.0871    32.0109 FFM360
  1  -203.6060  -216.3967  -215.6423  -232.3694 100    82.8975     0.4188    17.0000    29.0871    32.0109 FFM361
  1  -217.1225  -231.8255  -229.1588  -247.7982 100    84.0284     0.0157    17.0000    29.0871    32.0109 FFM362
  1  -230.7075  -247.2085  -242.7438  -263.1812 100   100.0926     0.0375    17.0000    29.0871    32.0109 FFM363
  1  -244.3760  -262.5671  -256.4123  -278.5399 100   115.5576     0.0046    17.0000    29.0871    32.0109 FFM364
  1  -258.1196  -277.8793  -270.1559  -293.8520 100   101.3701     0.0410    17.0000    29.0871    32.0109 FFM365
  1  -271.9392  -293.1669  -283.9755  -309.1396 100   104.5937     0.1978    17.0000    29.0871    32.0109 FFM366
  1  -285.8334  -308.4076  -297.8697  -324.3803 100    76.6531     0.0029    17.0000    29.0871    32.0109 FFM367
  1  -299.8024  -323.6123  -311.8387  -339.5850 100    63.5125     0.2769    17.0000    29.0871    32.0109 FFM368
  1  -313.8395  -338.7923  -325.8758  -354.7650 100    90.3624     0.2178    17.0000    29.0871    32.0109 FFM369
  1  -327.9576  -353.9243  -339.9939  -369.8970 100    92.6268     0.3178    17.0000    29.0871    32.0109 FFM370
  1  -342.1506  -369.0308  -354.1869  -385.0035 100    66.4376     0.0022    17.0000    29.0871    32.0109 FFM371
  1    42.4015   104.9117    30.3652    88.9389 100   116.5125     0.0056    28.0000    32.3060    37.0008 FFM372
  1    30.3597    88.8489    18.3234    72.8762 100    62.8944     0.0610    28.0000    32.3060    37.0008 FFM373
  1    18.2366    72.8281     6.2003    56.8554 100   117.5829     0.4869    28.0000    32.3060    37.0008 FFM374
  1     6.0323    56.8274    -6.0040    40.8546 100    94.7174     0.1228    28.0000    32.3060    37.0008 FFM375
  1    -6.2529    40.8690   -18.2892    24.8963 100    72.9644     0.0051    28.0000    32.3060    37.0008 FFM376
  1   -18.6188    24.9312   -30.6551     8.9585 100   111.3089     0.0137    28.0000    32.3060    37.0008 FFM377
  1   -31.0651     9.0363   -43.1014    -6.9364 100    62.4945     2.3908    28.0000    32.3060    37.0008 FFM378
  1   -43.5916    -6.8264   -55.6279   -22.7992 100    63.8921     1.0240    28.0000    32.3060    37.0008 FFM379
  1   -56.1981   -22.6680   -68.2344   -38.6407 100    70.7260     0.4580    28.0000    32.3060    37.0008 FFM380
  1   -68.8842   -38.4659   -80.9205   -54.4386 100    93.6075     3.9855    28.0000    32.3060    37.0008 FFM381
  1   -81.6499   -54.2421   -93.6862   -70.2148 100    61.5293     2.4354    28.0000    32.3060    37.0008 FFM382
  1   -94.4947   -69.9741  -106.5310   -85.9468 100    61.0881     6.2941    28.0000    32.3060    37.0008 FFM383
  1  -107.4188   -85.6840  -119.4551  -101.6567 100    62.3349     1.1385    28.0000    32.3060    37.0008 FFM384
  1  -120.4283  -101.3491  -132.4646  -117.3218 100    71.0935     1.6808    28.0000    32.3060    37.0008 FFM385
  1  -133.5093  -116.9805  -145.5456  -132.9533 100    79.1982     2.0295    28.0000    32.3060    37.0008 FFM386
  1  -146.6690  -132.5892  -158.7053  -148.5619 100   114.9863     4.2406    28.0000    32.3060    37.0008 FFM387
  1  -159.9064  -148.1525  -171.9427  -164.1252 100    87.9095     5.0858    28.0000    32.3060    37.0008 FFM388
  1  -173.2219  -163.6925  -185.2582  -179.6652 100   110.6930     4.5091    28.0000    32.3060    37.0008 FFM389
  1  -186.6146  -179.1867  -198.6509  -195.1594 100    79.8824     0.1258    28.0000    32.3060    37.0008 FFM390
  1  -200.0850  -194.6571  -212.1213  -210.6298 100    79.1993     0.0204    28.0000    32.3060    37.0008 FFM391
  1  -213.6321  -210.0813  -225.6684  -226.0541 100   116.4717     0.0251    28.0000    32.3060    37.0008 FFM392
  1  -227.2560  -225.4703  -239.2923  -241.4430 100    71.1256     0.1283    28.0000    32.3060    37.0008 FFM393
  1  -240.9570  -240.8347  -252.9933  -256.8074 100   107.4272     0.0110    28.0000    32.3060    37.0008 FFM394
  1  -254.7338  -256.1523  -266.7701  -272.1251 100   109.2669     0.0331    28.0000    32.3060    37.0008 FFM395
  1  -268.5873  -271.4451  -280.6236  -287.4178 100    64.7401     0.0456    28.0000    32.3060    37.0008 FFM396
  1  -282.5160  -286.6905  -294.5523  -302.6633 100    78.8821     0.1195    28.0000    32.3060    37.0008 FFM397
  1  -296.5210  -301.9107  -308.5573  -317.8834 100   101.2469     0.2248    28.0000    32.3060    37.0008 FFM398
  1  -310.6007  -317.0831  -322.6370  -333.0558 100    64.0693     1.2785    28.0000    32.3060    37.0008 FFM399
  1  -324.7555  -332.2187  -336.7918  -348.1914 100    61.7217     2.1739    28.0000    32.3060    37.0008 FFM400
  1  -338.9860  -347.3284  -351.0223  -363.3011 100    61.8716     0.0959    28.0000    32.3060    37.0008 FFM401
  1  -353.2903  -362.3898  -365.3266  -378.3625 100    62.1954     0.2555    28.0000    32.3060    37.0008 FFM402
  1    35.2897   110.1933    23.2534    94.2206 100   107.6339     0.0684    28.0000    37.0007    41.6955 FFM403
  1    23.2376    94.1483    11.2013    78.1756 100    90.5031     0.0863    28.0000    37.0007    41.6955 FFM404
  1    11.1042    78.1454    -0.9321    62.1727 100    74.9226     0.0087    28.0000    37.0007    41.6955 FFM405
  1    -1.1104    62.1625   -13.1467    46.1898 100    77.2254     0.0027    28.0000    37.0007    41.6955 FFM406
  1   -13.4058    46.2222   -25.4421    30.2495 100    62.6408     0.0229    28.0000    37.0007    41.6955 FFM407
  1   -25.7885    30.3136   -37.8248    14.3409 100    76.4093     0.0070    28.0000    37.0007    41.6955 FFM408
  1   -38.2450    14.4258   -50.2813    -1.5469 100    60.0716     0.1470    28.0000    37.0007    41.6955 FFM409
  1   -50.7816    -1.4188   -62.8179   -17.3915 100    60.3549     8.0057    28.0000    37.0007    41.6955 FFM410
  1   -63.3982   -17.2421   -75.4345   -33.2148 100    60.9679     9.1840    28.0000    37.0007    41.6955 FFM411
  1   -76.0943   -33.0216   -88.1306   -48.9943 100   101.7792     0.6142    28.0000    37.0007    41.6955 FFM412
  1   -88.8700   -48.7794  -100.9063   -64.7521 100    96.5538     0.7660    28.0000    37.0007    41.6955 FFM413
  1  -101.7247   -64.4929  -113.7610   -80.4656 100    95.8872     7.0824    28.0000    37.0007    41.6955 FFM414
  1  -114.6584   -80.1731  -126.6947   -96.1458 100   116.4721     5.5883    28.0000    37.0007    41.6955 FFM415
  1  -127.6711   -95.8309  -139.7074  -111.8036 100    94.8370     5.7473    28.0000    37.0007    41.6955 FFM416
  1  -140.7619  -111.4437  -152.7982  -127.4164 100   116.1840     7.6589    28.0000    37.0007    41.6955 FFM417
  1  -153.9313  -127.0335  -165.9676  -143.0062 100    98.2833     9.0632    28.0000    37.0007    41.6955 FFM418
  1  -167.1784  -142.5780  -179.2147  -158.5507 100    92.9878    10.5412    28.0000    37.0007    41.6955 FFM419
  1  -180.5036  -158.0992  -192.5399  -174.0719 100    88.1247     9.6402    28.0000    37.0007    41.6955 FFM420
  1  -193.9059  -173.5744  -205.9422  -189.5471 100    76.8824     3.5783    28.0000    37.0007    41.6955 FFM421
  1  -207.3854  -189.0148  -219.4217  -204.9875 100   114.8838     0.2399    28.0000    37.0007    41.6955 FFM422
  1  -220.9425  -204.4310  -232.9788  -220.4037 100    92.5240     0.0624    28.0000    37.0007    41.6955 FFM423
  1  -234.5759  -219.8008  -246.6122  -235.7735 100    79.5918     0.0305    28.0000    37.0007    41.6955 FFM424
  1  -248.2863  -235.1461  -260.3226  -251.1188 100    64.0180     0.0968    28.0000    37.0007    41.6955 FFM425
  1  -262.0725  -250.4444  -274.1088  -266.4172 100    93.7529     0.0418    28.0000    37.0007    41.6955 FFM426
  1  -275.9353  -265.7179  -287.9716  -281.6906 100   117.3022     0.0596    28.0000    37.0007    41.6955 FFM427
  1  -289.8733  -280.9439  -301.9096  -296.9166 100    78.2093     0.0422    28.0000    37.0007    41.6955 FFM428
  1  -303.8869  -296.1335  -315.9232  -312.1062 100    90.2849     0.0220    28.0000    37.0007    41.6955 FFM429
  1  -317.9765  -311.2975  -330.0128  -327.2702 100    63.1124     0.9546    28.0000    37.0007    41.6955 FFM430
  1  -332.1405  -326.4136  -344.1768  -342.3863 100    83.7663     0.0694    28.0000    37.0007    41.6955 FFM431
  1  -346.3801  -341.5036  -358.4164  -357.4763 100    65.4699     0.0818    28.0000    37.0007    41.6955 FFM432
  1  -360.6935  -356.5452  -372.7298  -372.5180 100   104.0392     0.0069    28.0000    37.0007    41.6955 FFM433
  1    28.1871   115.4855    16.1508    99.5127 100   111.2148     0.0817    28.0000    41.6954    46.3902 FFM434
  1    16.1247    99.4583     4.0884    83.4856 100   113.2974     0.0147    28.0000    41.6954    46.3902 FFM435
  1     3.9809    83.4733    -8.0554    67.5005 100    72.8756     0.4067    28.0000    41.6954    46.3902 FFM436
  1    -8.2439    67.5195   -20.2802    51.5468 100    61.4363     0.2950    28.0000    41.6954    46.3902 FFM437
  1   -20.5495    51.5860   -32.5858    35.6133 100    90.2280     0.0307    28.0000    41.6954    46.3902 FFM438
  1   -32.9357    35.6955   -44.9720    19.7228 100   114.4459     0.0054    28.0000    41.6954    46.3902 FFM439
  1   -45.4023    19.8257   -57.4386     3.8530 100    87.3634     0.0747    28.0000    41.6954    46.3902 FFM440
  1   -57.9489     3.9994   -69.9852   -11.9733 100    63.4181     0.3486    28.0000    41.6954    46.3902 FFM441
  1   -70.5755   -11.8056   -82.6118   -27.7784 100    60.7222     0.0830    28.0000    41.6954    46.3902 FFM442
  1   -83.2816   -27.5668   -95.3179   -43.5395 100    95.9490     0.4077    28.0000    41.6954    46.3902 FFM443
  1   -96.0671   -43.2951  -108.1034   -59.2678 100    76.4859     0.4815    28.0000    41.6954    46.3902 FFM444
  1  -108.9319   -59.0013  -120.9682   -74.9740 100    61.6862     0.4010    28.0000    41.6954    46.3902 FFM445
  1  -121.8755   -74.6629  -133.9118   -90.6357 100   118.4218     0.3833    28.0000    41.6954    46.3902 FFM446
  1  -134.8979   -90.3021  -146.9342  -106.2748 100   112.0706     0.3779    28.0000    41.6954    46.3902 FFM447
  1  -147.9985  -105.8962  -160.0348  -121.8689 100   117.3464     0.4648    28.0000    41.6954    46.3902 FFM448
  1  -161.1777  -121.4674  -173.2140  -137.4401 100    95.4341     0.1852    28.0000    41.6954    46.3902 FFM449
  1  -174.4344  -136.9931  -186.4707  -152.9658 100    85.7505     0.3385    28.0000    41.6954    46.3902 FFM450
  1  -187.7688  -152.4842  -199.8051  -168.4569 100    80.5795     0.2951    28.0000    41.6954    46.3902 FFM451
  1  -201.1812  -167.9517  -213.2175  -183.9244 100   115.7664     0.4989    28.0000    41.6954    46.3902 FFM452
  1  -214.6703  -183.3730  -226.7066  -199.3457 100    75.1382     0.0634    28.0000    41.6954    46.3902 FFM453
  1  -228.2369  -198.7702  -240.2732  -214.7429 100    68.6655     0.0344    28.0000    41.6954    46.3902 FFM454
  1  -241.8797  -214.1208  -253.9160  -230.0936 100    95.6963     0.2689    28.0000    41.6954    46.3902 FFM455
  1  -255.5995  -229.4469  -267.6358  -245.4196 100    68.8677     0.0705    28.0000    41.6954    46.3902 FFM456
  1  -269.3951  -244.7260  -281.4314  -260.6987 100   100.9123     0.0470    28.0000    41.6954    46.3902 FFM457
  1  -283.2666  -259.9690  -295.3029  -275.9417 100   108.9862     0.3126    28.0000    41.6954    46.3902 FFM458
  1  -297.2217  -275.1864  -309.2580  -291.1591 100    98.0031     0.0303    28.0000    41.6954    46.3902 FFM459
  1  -311.2446  -290.3565  -323.2809  -306.3292 100    80.0918     0.0761    28.0000    41.6954    46.3902 FFM460
  1  -325.3434  -305.5010  -337.3797  -321.4737 100   105.9404     0.0199    28.0000    41.6954    46.3902 FFM461
  1  -339.5166  -320.5974  -351.5529  -336.5701 100    83.0331     0.0089    28.0000    41.6954    46.3902 FFM462
  1  -353.7653  -335.6678  -365.8016  -351.6405 100   118.7557     0.0639    28.0000    41.6954    46.3902 FFM463
  1  -368.0877  -350.6897  -380.1240  -366.6624 100   104.7942     0.2156    28.0000    41.6954    46.3902 FFM464

     Grid Parameters
1 ----------------------------  Start-x =    -338.4024250
2 ----------------------------  Start-y =    -555.9500000
3 --------------------------   Finish-x =     338.4024250
4 --------------------------   Finish-y =     555.9500000
5 -----------------------   x-increment =       6.7680485
6 -----------------------   y-increment =      11.1190000

     Size Parameters
1 --------------------------  Plot size =      10.0000000
2 --------------  Shade/Color increment =       1.0000000
3 ------  Exaggeration for disp.& dist. =   10000.0000000

     Cross section default
1 ----------------------------  Start-x =     155.1840000
2 ----------------------------  Start-y =      47.5050000
3 ---------------------------  Finish-x =     165.1840000
4 ---------------------------  Finish-y =      57.5050000
5 ------------------  Distant-increment =       6.7680485
6 ----------------------------- Z-depth =     -17.0000000
7 ------------------------  Z-increment =       1.0000000

     Map info
1 ---------------------------  min. lon =     155.1840000
2 ---------------------------  max. lon =     165.1840000
3 ---------------------------  zero lon =     160.1840000
4 ---------------------------  min. lat =      47.5050000
5 ---------------------------  max. lat =      57.5050000
6 ---------------------------  zero lat =      52.5050000
7 ------------------------  Z-increment =       1.0000000
